n_machines = 10;
n_resources = 17;
n_jobs = 170;
horizon = 801;
LB = 80;
n_jobs_per_resource = [10, 10, 10, 10, 10, 10, 10, 10, 10, 10, 10, 10, 10, 10, 10, 10, 10];
duration = [9, 7, 7, 1, 2, 1, 9, 3, 4, 5, 7, 8, 9, 1, 3, 4, 1, 3, 1, 3, 9, 1, 1, 1, 3, 3, 6, 9, 1, 7, 5, 6, 1, 6, 4, 9, 9, 1, 5, 7, 1, 9, 6, 2, 4, 7, 7, 5, 3, 5, 2, 4, 4, 5, 6, 7, 8, 5, 1, 2, 7, 5, 2, 7, 3, 4, 6, 3, 2, 4, 9, 6, 7, 7, 4, 1, 3, 2, 8, 9, 3, 1, 4, 5, 1, 3, 3, 4, 6, 3, 4, 8, 2, 4, 3, 8, 9, 9, 7, 1, 3, 4, 1, 8, 2, 2, 8, 9, 8, 4, 6, 2, 5, 7, 1, 3, 7, 3, 3, 2, 8, 6, 9, 9, 4, 4, 6, 4, 6, 3, 8, 9, 2, 5, 1, 9, 9, 7, 3, 9, 2, 9, 4, 2, 6, 6, 2, 3, 7, 1, 1, 3, 4, 2, 2, 5, 8, 2, 1, 3, 3, 2, 6, 9, 6, 8, 6, 6, 5, 6]